Company = {AIMS, SAS, Keelvar, Microsoft, Google, IBM, Cadence, Quintiq, Siemens, Cosling, COSYTEC, LocalSolver, N-side, UTRC-I, Zoomer};
Capacity = [5, 5, 3, 10, 10, 10, 5, 10, 10, 3, 3, 3, 3, 5, 5];